
;this file is automatically generated: Fri Oct 30 17:04:04 CST 2020

;declarations generated

(declare-fun obj_54256b97_c4ad_4909_8847_7f64c34c376a ( Int) Int)
(declare-fun type_34ef9121_2263_4860_9386_85eead73a8d2_Class18 ( Int) Bool)
(declare-fun type_34ef9121_2263_4860_9386_85eead73a8d2_Class19 ( Int) Bool)
(declare-fun type_34ef9121_2263_4860_9386_85eead73a8d2_Class14 ( Int) Bool)
(declare-fun type_34ef9121_2263_4860_9386_85eead73a8d2_Class15 ( Int) Bool)
(declare-fun type_34ef9121_2263_4860_9386_85eead73a8d2_Class16 ( Int) Bool)
(declare-fun type_34ef9121_2263_4860_9386_85eead73a8d2_Class17 ( Int) Bool)
(declare-fun type_34ef9121_2263_4860_9386_85eead73a8d2_Class10 ( Int) Bool)
(declare-fun type_34ef9121_2263_4860_9386_85eead73a8d2_Class11 ( Int) Bool)
(declare-fun type_34ef9121_2263_4860_9386_85eead73a8d2_Class12 ( Int) Bool)
(declare-fun type_34ef9121_2263_4860_9386_85eead73a8d2_Class13 ( Int) Bool)
(declare-fun type_34ef9121_2263_4860_9386_85eead73a8d2_Class20 ( Int) Bool)
(declare-fun oclExcludes ( Int Int) Bool)
(declare-fun type_34ef9121_2263_4860_9386_85eead73a8d2_Class29 ( Int) Bool)
(declare-fun type_34ef9121_2263_4860_9386_85eead73a8d2_Class25 ( Int) Bool)
(declare-fun type_34ef9121_2263_4860_9386_85eead73a8d2_Class26 ( Int) Bool)
(declare-fun type_34ef9121_2263_4860_9386_85eead73a8d2_Class27 ( Int) Bool)
(declare-fun type_34ef9121_2263_4860_9386_85eead73a8d2_Class28 ( Int) Bool)
(declare-fun type_34ef9121_2263_4860_9386_85eead73a8d2_Class21 ( Int) Bool)
(declare-fun type_34ef9121_2263_4860_9386_85eead73a8d2_Class22 ( Int) Bool)
(declare-fun type_34ef9121_2263_4860_9386_85eead73a8d2_Class23 ( Int) Bool)
(declare-fun type_34ef9121_2263_4860_9386_85eead73a8d2_Class24 ( Int) Bool)
(declare-fun type_34ef9121_2263_4860_9386_85eead73a8d2_Class30 ( Int) Bool)
(declare-fun type_34ef9121_2263_4860_9386_85eead73a8d2_Class31 ( Int) Bool)
(declare-fun type_34ef9121_2263_4860_9386_85eead73a8d2_Class36 ( Int) Bool)
(declare-fun type_34ef9121_2263_4860_9386_85eead73a8d2_Class37 ( Int) Bool)
(declare-fun type_34ef9121_2263_4860_9386_85eead73a8d2_Class38 ( Int) Bool)
(declare-fun type_34ef9121_2263_4860_9386_85eead73a8d2_Class39 ( Int) Bool)
(declare-fun type_34ef9121_2263_4860_9386_85eead73a8d2_Class32 ( Int) Bool)
(declare-fun type_34ef9121_2263_4860_9386_85eead73a8d2_Class33 ( Int) Bool)
(declare-fun type_34ef9121_2263_4860_9386_85eead73a8d2_Class34 ( Int) Bool)
(declare-fun type_34ef9121_2263_4860_9386_85eead73a8d2_Class35 ( Int) Bool)
(declare-fun type_34ef9121_2263_4860_9386_85eead73a8d2_Class40 ( Int) Bool)
(declare-fun type_34ef9121_2263_4860_9386_85eead73a8d2_Class41 ( Int) Bool)
(declare-fun type_34ef9121_2263_4860_9386_85eead73a8d2_Class42 ( Int) Bool)
(declare-fun Cardinality ( Int) Int)
(declare-fun class43_Class43BoolAttr0 ( Int) Bool)
(declare-fun class43_Class43BoolAttr1 ( Int) Bool)
(declare-fun oclSelect ( Int Bool) Int)
(declare-fun type_34ef9121_2263_4860_9386_85eead73a8d2_Class9 ( Int) Bool)
(declare-fun type_34ef9121_2263_4860_9386_85eead73a8d2_Class7 ( Int) Bool)
(declare-fun type_34ef9121_2263_4860_9386_85eead73a8d2_Class8 ( Int) Bool)
(declare-fun type_34ef9121_2263_4860_9386_85eead73a8d2_Class5 ( Int) Bool)
(declare-fun type_34ef9121_2263_4860_9386_85eead73a8d2_Class6 ( Int) Bool)
(declare-fun type_34ef9121_2263_4860_9386_85eead73a8d2_Class3 ( Int) Bool)
(declare-fun type_34ef9121_2263_4860_9386_85eead73a8d2_Class4 ( Int) Bool)
(declare-fun type_34ef9121_2263_4860_9386_85eead73a8d2_Class1 ( Int) Bool)
(declare-fun type_34ef9121_2263_4860_9386_85eead73a8d2_Class2 ( Int) Bool)
(declare-fun type_34ef9121_2263_4860_9386_85eead73a8d2_Class0 ( Int) Bool)
(declare-fun Enum0 ( Int) Int)
(declare-fun Enum1 ( Int) Int)
(declare-fun Enum2 ( Int) Int)
(declare-fun container_ ( Int) Int)
(declare-fun type_34ef9121_2263_4860_9386_85eead73a8d2_Class47 ( Int) Bool)
(declare-fun type_34ef9121_2263_4860_9386_85eead73a8d2_Class48 ( Int) Bool)
(declare-fun type_34ef9121_2263_4860_9386_85eead73a8d2_Class49 ( Int) Bool)
(declare-fun type_34ef9121_2263_4860_9386_85eead73a8d2_Class43 ( Int) Bool)
(declare-fun type_34ef9121_2263_4860_9386_85eead73a8d2_Class44 ( Int) Bool)
(declare-fun type_34ef9121_2263_4860_9386_85eead73a8d2_Class45 ( Int) Bool)
(declare-fun type_34ef9121_2263_4860_9386_85eead73a8d2_Class46 ( Int) Bool)
(declare-fun type_34ef9121_2263_4860_9386_85eead73a8d2_Class50 ( Int) Bool)
(declare-fun type_34ef9121_2263_4860_9386_85eead73a8d2_Class51 ( Int) Bool)
(declare-fun type_34ef9121_2263_4860_9386_85eead73a8d2_Class52 ( Int) Bool)
(declare-fun type_34ef9121_2263_4860_9386_85eead73a8d2_Class53 ( Int) Bool)
(declare-fun oclIncludes ( Int Int) Bool)
(declare-fun type_34ef9121_2263_4860_9386_85eead73a8d2_Class54 ( Int) Bool)
(declare-fun type_34ef9121_2263_4860_9386_85eead73a8d2_Class55 ( Int) Bool)
(declare-fun ObjAt ( Int Int) Int)

;formula(s) generated
(assert (! (exists ((c1 Int)(c2 Int)) (and (and ( type_34ef9121_2263_4860_9386_85eead73a8d2_Class43 c1 )  ( type_34ef9121_2263_4860_9386_85eead73a8d2_Class43 c2 ) ) (or ( class43_Class43BoolAttr0 ( obj_54256b97_c4ad_4909_8847_7f64c34c376a c1 )  )  ( class43_Class43BoolAttr1 ( obj_54256b97_c4ad_4909_8847_7f64c34c376a c2 )  ) ))):named l0))
(assert (! (exists ((o Int)) ( type_34ef9121_2263_4860_9386_85eead73a8d2_Class0 ( obj_54256b97_c4ad_4909_8847_7f64c34c376a o )  ) ):named c0))
(assert (! (exists ((o Int)) (and (and (and (and (and ( type_34ef9121_2263_4860_9386_85eead73a8d2_Class1 ( obj_54256b97_c4ad_4909_8847_7f64c34c376a o )  )  ( type_34ef9121_2263_4860_9386_85eead73a8d2_Class45 ( obj_54256b97_c4ad_4909_8847_7f64c34c376a o )  ) ) ( type_34ef9121_2263_4860_9386_85eead73a8d2_Class12 ( obj_54256b97_c4ad_4909_8847_7f64c34c376a o )  ) ) ( type_34ef9121_2263_4860_9386_85eead73a8d2_Class33 ( obj_54256b97_c4ad_4909_8847_7f64c34c376a o )  ) ) ( type_34ef9121_2263_4860_9386_85eead73a8d2_Class22 ( obj_54256b97_c4ad_4909_8847_7f64c34c376a o )  ) ) ( type_34ef9121_2263_4860_9386_85eead73a8d2_Class39 ( obj_54256b97_c4ad_4909_8847_7f64c34c376a o )  ) )):named c1))
(assert (! (exists ((o Int)) (and (and (and (and (and (and (and (and (and ( type_34ef9121_2263_4860_9386_85eead73a8d2_Class10 ( obj_54256b97_c4ad_4909_8847_7f64c34c376a o )  )  ( type_34ef9121_2263_4860_9386_85eead73a8d2_Class45 ( obj_54256b97_c4ad_4909_8847_7f64c34c376a o )  ) ) ( type_34ef9121_2263_4860_9386_85eead73a8d2_Class12 ( obj_54256b97_c4ad_4909_8847_7f64c34c376a o )  ) ) ( type_34ef9121_2263_4860_9386_85eead73a8d2_Class55 ( obj_54256b97_c4ad_4909_8847_7f64c34c376a o )  ) ) ( type_34ef9121_2263_4860_9386_85eead73a8d2_Class33 ( obj_54256b97_c4ad_4909_8847_7f64c34c376a o )  ) ) ( type_34ef9121_2263_4860_9386_85eead73a8d2_Class22 ( obj_54256b97_c4ad_4909_8847_7f64c34c376a o )  ) ) ( type_34ef9121_2263_4860_9386_85eead73a8d2_Class29 ( obj_54256b97_c4ad_4909_8847_7f64c34c376a o )  ) ) ( type_34ef9121_2263_4860_9386_85eead73a8d2_Class39 ( obj_54256b97_c4ad_4909_8847_7f64c34c376a o )  ) ) ( type_34ef9121_2263_4860_9386_85eead73a8d2_Class50 ( obj_54256b97_c4ad_4909_8847_7f64c34c376a o )  ) ) ( type_34ef9121_2263_4860_9386_85eead73a8d2_Class41 ( obj_54256b97_c4ad_4909_8847_7f64c34c376a o )  ) )):named c2))
(assert (! (exists ((o Int)) ( type_34ef9121_2263_4860_9386_85eead73a8d2_Class11 ( obj_54256b97_c4ad_4909_8847_7f64c34c376a o )  ) ):named c3))
(assert (! (exists ((o Int)) (and (and (and ( type_34ef9121_2263_4860_9386_85eead73a8d2_Class12 ( obj_54256b97_c4ad_4909_8847_7f64c34c376a o )  )  ( type_34ef9121_2263_4860_9386_85eead73a8d2_Class33 ( obj_54256b97_c4ad_4909_8847_7f64c34c376a o )  ) ) ( type_34ef9121_2263_4860_9386_85eead73a8d2_Class22 ( obj_54256b97_c4ad_4909_8847_7f64c34c376a o )  ) ) ( type_34ef9121_2263_4860_9386_85eead73a8d2_Class39 ( obj_54256b97_c4ad_4909_8847_7f64c34c376a o )  ) )):named c4))
(assert (! (exists ((o Int)) (and (and (and (and (and (and (and (and (and ( type_34ef9121_2263_4860_9386_85eead73a8d2_Class13 ( obj_54256b97_c4ad_4909_8847_7f64c34c376a o )  )  ( type_34ef9121_2263_4860_9386_85eead73a8d2_Class45 ( obj_54256b97_c4ad_4909_8847_7f64c34c376a o )  ) ) ( type_34ef9121_2263_4860_9386_85eead73a8d2_Class12 ( obj_54256b97_c4ad_4909_8847_7f64c34c376a o )  ) ) ( type_34ef9121_2263_4860_9386_85eead73a8d2_Class55 ( obj_54256b97_c4ad_4909_8847_7f64c34c376a o )  ) ) ( type_34ef9121_2263_4860_9386_85eead73a8d2_Class33 ( obj_54256b97_c4ad_4909_8847_7f64c34c376a o )  ) ) ( type_34ef9121_2263_4860_9386_85eead73a8d2_Class22 ( obj_54256b97_c4ad_4909_8847_7f64c34c376a o )  ) ) ( type_34ef9121_2263_4860_9386_85eead73a8d2_Class29 ( obj_54256b97_c4ad_4909_8847_7f64c34c376a o )  ) ) ( type_34ef9121_2263_4860_9386_85eead73a8d2_Class39 ( obj_54256b97_c4ad_4909_8847_7f64c34c376a o )  ) ) ( type_34ef9121_2263_4860_9386_85eead73a8d2_Class50 ( obj_54256b97_c4ad_4909_8847_7f64c34c376a o )  ) ) ( type_34ef9121_2263_4860_9386_85eead73a8d2_Class41 ( obj_54256b97_c4ad_4909_8847_7f64c34c376a o )  ) )):named c5))
(assert (! (exists ((o Int)) (and (and (and (and (and (and (and (and (and ( type_34ef9121_2263_4860_9386_85eead73a8d2_Class14 ( obj_54256b97_c4ad_4909_8847_7f64c34c376a o )  )  ( type_34ef9121_2263_4860_9386_85eead73a8d2_Class45 ( obj_54256b97_c4ad_4909_8847_7f64c34c376a o )  ) ) ( type_34ef9121_2263_4860_9386_85eead73a8d2_Class12 ( obj_54256b97_c4ad_4909_8847_7f64c34c376a o )  ) ) ( type_34ef9121_2263_4860_9386_85eead73a8d2_Class55 ( obj_54256b97_c4ad_4909_8847_7f64c34c376a o )  ) ) ( type_34ef9121_2263_4860_9386_85eead73a8d2_Class33 ( obj_54256b97_c4ad_4909_8847_7f64c34c376a o )  ) ) ( type_34ef9121_2263_4860_9386_85eead73a8d2_Class22 ( obj_54256b97_c4ad_4909_8847_7f64c34c376a o )  ) ) ( type_34ef9121_2263_4860_9386_85eead73a8d2_Class29 ( obj_54256b97_c4ad_4909_8847_7f64c34c376a o )  ) ) ( type_34ef9121_2263_4860_9386_85eead73a8d2_Class39 ( obj_54256b97_c4ad_4909_8847_7f64c34c376a o )  ) ) ( type_34ef9121_2263_4860_9386_85eead73a8d2_Class50 ( obj_54256b97_c4ad_4909_8847_7f64c34c376a o )  ) ) ( type_34ef9121_2263_4860_9386_85eead73a8d2_Class41 ( obj_54256b97_c4ad_4909_8847_7f64c34c376a o )  ) )):named c6))
(assert (! (exists ((o Int)) ( type_34ef9121_2263_4860_9386_85eead73a8d2_Class15 ( obj_54256b97_c4ad_4909_8847_7f64c34c376a o )  ) ):named c7))
(assert (! (exists ((o Int)) (and (and (and (and (and ( type_34ef9121_2263_4860_9386_85eead73a8d2_Class16 ( obj_54256b97_c4ad_4909_8847_7f64c34c376a o )  )  ( type_34ef9121_2263_4860_9386_85eead73a8d2_Class45 ( obj_54256b97_c4ad_4909_8847_7f64c34c376a o )  ) ) ( type_34ef9121_2263_4860_9386_85eead73a8d2_Class12 ( obj_54256b97_c4ad_4909_8847_7f64c34c376a o )  ) ) ( type_34ef9121_2263_4860_9386_85eead73a8d2_Class33 ( obj_54256b97_c4ad_4909_8847_7f64c34c376a o )  ) ) ( type_34ef9121_2263_4860_9386_85eead73a8d2_Class22 ( obj_54256b97_c4ad_4909_8847_7f64c34c376a o )  ) ) ( type_34ef9121_2263_4860_9386_85eead73a8d2_Class39 ( obj_54256b97_c4ad_4909_8847_7f64c34c376a o )  ) )):named c8))
(assert (! (exists ((o Int)) ( type_34ef9121_2263_4860_9386_85eead73a8d2_Class17 ( obj_54256b97_c4ad_4909_8847_7f64c34c376a o )  ) ):named c9))
(assert (! (exists ((o Int)) (and (and (and ( type_34ef9121_2263_4860_9386_85eead73a8d2_Class18 ( obj_54256b97_c4ad_4909_8847_7f64c34c376a o )  )  ( type_34ef9121_2263_4860_9386_85eead73a8d2_Class25 ( obj_54256b97_c4ad_4909_8847_7f64c34c376a o )  ) ) ( type_34ef9121_2263_4860_9386_85eead73a8d2_Class24 ( obj_54256b97_c4ad_4909_8847_7f64c34c376a o )  ) ) ( type_34ef9121_2263_4860_9386_85eead73a8d2_Class39 ( obj_54256b97_c4ad_4909_8847_7f64c34c376a o )  ) )):named c10))
(assert (! (exists ((o Int)) (and (and (and (and (and (and (and (and (and ( type_34ef9121_2263_4860_9386_85eead73a8d2_Class19 ( obj_54256b97_c4ad_4909_8847_7f64c34c376a o )  )  ( type_34ef9121_2263_4860_9386_85eead73a8d2_Class45 ( obj_54256b97_c4ad_4909_8847_7f64c34c376a o )  ) ) ( type_34ef9121_2263_4860_9386_85eead73a8d2_Class12 ( obj_54256b97_c4ad_4909_8847_7f64c34c376a o )  ) ) ( type_34ef9121_2263_4860_9386_85eead73a8d2_Class55 ( obj_54256b97_c4ad_4909_8847_7f64c34c376a o )  ) ) ( type_34ef9121_2263_4860_9386_85eead73a8d2_Class33 ( obj_54256b97_c4ad_4909_8847_7f64c34c376a o )  ) ) ( type_34ef9121_2263_4860_9386_85eead73a8d2_Class22 ( obj_54256b97_c4ad_4909_8847_7f64c34c376a o )  ) ) ( type_34ef9121_2263_4860_9386_85eead73a8d2_Class29 ( obj_54256b97_c4ad_4909_8847_7f64c34c376a o )  ) ) ( type_34ef9121_2263_4860_9386_85eead73a8d2_Class39 ( obj_54256b97_c4ad_4909_8847_7f64c34c376a o )  ) ) ( type_34ef9121_2263_4860_9386_85eead73a8d2_Class50 ( obj_54256b97_c4ad_4909_8847_7f64c34c376a o )  ) ) ( type_34ef9121_2263_4860_9386_85eead73a8d2_Class41 ( obj_54256b97_c4ad_4909_8847_7f64c34c376a o )  ) )):named c11))
(assert (! (exists ((o Int)) ( type_34ef9121_2263_4860_9386_85eead73a8d2_Class2 ( obj_54256b97_c4ad_4909_8847_7f64c34c376a o )  ) ):named c12))
(assert (! (exists ((o Int)) ( type_34ef9121_2263_4860_9386_85eead73a8d2_Class20 ( obj_54256b97_c4ad_4909_8847_7f64c34c376a o )  ) ):named c13))
(assert (! (exists ((o Int)) (and (and (and (and (and (and (and (and (and ( type_34ef9121_2263_4860_9386_85eead73a8d2_Class21 ( obj_54256b97_c4ad_4909_8847_7f64c34c376a o )  )  ( type_34ef9121_2263_4860_9386_85eead73a8d2_Class45 ( obj_54256b97_c4ad_4909_8847_7f64c34c376a o )  ) ) ( type_34ef9121_2263_4860_9386_85eead73a8d2_Class12 ( obj_54256b97_c4ad_4909_8847_7f64c34c376a o )  ) ) ( type_34ef9121_2263_4860_9386_85eead73a8d2_Class33 ( obj_54256b97_c4ad_4909_8847_7f64c34c376a o )  ) ) ( type_34ef9121_2263_4860_9386_85eead73a8d2_Class22 ( obj_54256b97_c4ad_4909_8847_7f64c34c376a o )  ) ) ( type_34ef9121_2263_4860_9386_85eead73a8d2_Class16 ( obj_54256b97_c4ad_4909_8847_7f64c34c376a o )  ) ) ( type_34ef9121_2263_4860_9386_85eead73a8d2_Class29 ( obj_54256b97_c4ad_4909_8847_7f64c34c376a o )  ) ) ( type_34ef9121_2263_4860_9386_85eead73a8d2_Class39 ( obj_54256b97_c4ad_4909_8847_7f64c34c376a o )  ) ) ( type_34ef9121_2263_4860_9386_85eead73a8d2_Class41 ( obj_54256b97_c4ad_4909_8847_7f64c34c376a o )  ) ) ( type_34ef9121_2263_4860_9386_85eead73a8d2_Class51 ( obj_54256b97_c4ad_4909_8847_7f64c34c376a o )  ) )):named c14))
(assert (! (exists ((o Int)) (and ( type_34ef9121_2263_4860_9386_85eead73a8d2_Class22 ( obj_54256b97_c4ad_4909_8847_7f64c34c376a o )  )  ( type_34ef9121_2263_4860_9386_85eead73a8d2_Class39 ( obj_54256b97_c4ad_4909_8847_7f64c34c376a o )  ) )):named c15))
(assert (! (exists ((o Int)) (and (and (and (and ( type_34ef9121_2263_4860_9386_85eead73a8d2_Class23 ( obj_54256b97_c4ad_4909_8847_7f64c34c376a o )  )  ( type_34ef9121_2263_4860_9386_85eead73a8d2_Class25 ( obj_54256b97_c4ad_4909_8847_7f64c34c376a o )  ) ) ( type_34ef9121_2263_4860_9386_85eead73a8d2_Class24 ( obj_54256b97_c4ad_4909_8847_7f64c34c376a o )  ) ) ( type_34ef9121_2263_4860_9386_85eead73a8d2_Class39 ( obj_54256b97_c4ad_4909_8847_7f64c34c376a o )  ) ) ( type_34ef9121_2263_4860_9386_85eead73a8d2_Class5 ( obj_54256b97_c4ad_4909_8847_7f64c34c376a o )  ) )):named c16))
(assert (! (exists ((o Int)) (and (and ( type_34ef9121_2263_4860_9386_85eead73a8d2_Class24 ( obj_54256b97_c4ad_4909_8847_7f64c34c376a o )  )  ( type_34ef9121_2263_4860_9386_85eead73a8d2_Class25 ( obj_54256b97_c4ad_4909_8847_7f64c34c376a o )  ) ) ( type_34ef9121_2263_4860_9386_85eead73a8d2_Class39 ( obj_54256b97_c4ad_4909_8847_7f64c34c376a o )  ) )):named c17))
(assert (! (exists ((o Int)) (and ( type_34ef9121_2263_4860_9386_85eead73a8d2_Class25 ( obj_54256b97_c4ad_4909_8847_7f64c34c376a o )  )  ( type_34ef9121_2263_4860_9386_85eead73a8d2_Class39 ( obj_54256b97_c4ad_4909_8847_7f64c34c376a o )  ) )):named c18))
(assert (! (exists ((o Int)) ( type_34ef9121_2263_4860_9386_85eead73a8d2_Class26 ( obj_54256b97_c4ad_4909_8847_7f64c34c376a o )  ) ):named c19))
(assert (! (exists ((o Int)) ( type_34ef9121_2263_4860_9386_85eead73a8d2_Class27 ( obj_54256b97_c4ad_4909_8847_7f64c34c376a o )  ) ):named c20))
(assert (! (exists ((o Int)) (and (and (and (and (and (and (and ( type_34ef9121_2263_4860_9386_85eead73a8d2_Class28 ( obj_54256b97_c4ad_4909_8847_7f64c34c376a o )  )  ( type_34ef9121_2263_4860_9386_85eead73a8d2_Class45 ( obj_54256b97_c4ad_4909_8847_7f64c34c376a o )  ) ) ( type_34ef9121_2263_4860_9386_85eead73a8d2_Class12 ( obj_54256b97_c4ad_4909_8847_7f64c34c376a o )  ) ) ( type_34ef9121_2263_4860_9386_85eead73a8d2_Class33 ( obj_54256b97_c4ad_4909_8847_7f64c34c376a o )  ) ) ( type_34ef9121_2263_4860_9386_85eead73a8d2_Class22 ( obj_54256b97_c4ad_4909_8847_7f64c34c376a o )  ) ) ( type_34ef9121_2263_4860_9386_85eead73a8d2_Class29 ( obj_54256b97_c4ad_4909_8847_7f64c34c376a o )  ) ) ( type_34ef9121_2263_4860_9386_85eead73a8d2_Class39 ( obj_54256b97_c4ad_4909_8847_7f64c34c376a o )  ) ) ( type_34ef9121_2263_4860_9386_85eead73a8d2_Class41 ( obj_54256b97_c4ad_4909_8847_7f64c34c376a o )  ) )):named c21))
(assert (! (exists ((o Int)) (and (and (and (and (and (and ( type_34ef9121_2263_4860_9386_85eead73a8d2_Class29 ( obj_54256b97_c4ad_4909_8847_7f64c34c376a o )  )  ( type_34ef9121_2263_4860_9386_85eead73a8d2_Class45 ( obj_54256b97_c4ad_4909_8847_7f64c34c376a o )  ) ) ( type_34ef9121_2263_4860_9386_85eead73a8d2_Class12 ( obj_54256b97_c4ad_4909_8847_7f64c34c376a o )  ) ) ( type_34ef9121_2263_4860_9386_85eead73a8d2_Class33 ( obj_54256b97_c4ad_4909_8847_7f64c34c376a o )  ) ) ( type_34ef9121_2263_4860_9386_85eead73a8d2_Class22 ( obj_54256b97_c4ad_4909_8847_7f64c34c376a o )  ) ) ( type_34ef9121_2263_4860_9386_85eead73a8d2_Class39 ( obj_54256b97_c4ad_4909_8847_7f64c34c376a o )  ) ) ( type_34ef9121_2263_4860_9386_85eead73a8d2_Class41 ( obj_54256b97_c4ad_4909_8847_7f64c34c376a o )  ) )):named c22))
(assert (! (exists ((o Int)) (and (and (and ( type_34ef9121_2263_4860_9386_85eead73a8d2_Class3 ( obj_54256b97_c4ad_4909_8847_7f64c34c376a o )  )  ( type_34ef9121_2263_4860_9386_85eead73a8d2_Class25 ( obj_54256b97_c4ad_4909_8847_7f64c34c376a o )  ) ) ( type_34ef9121_2263_4860_9386_85eead73a8d2_Class24 ( obj_54256b97_c4ad_4909_8847_7f64c34c376a o )  ) ) ( type_34ef9121_2263_4860_9386_85eead73a8d2_Class39 ( obj_54256b97_c4ad_4909_8847_7f64c34c376a o )  ) )):named c23))
(assert (! (exists ((o Int)) (and ( type_34ef9121_2263_4860_9386_85eead73a8d2_Class30 ( obj_54256b97_c4ad_4909_8847_7f64c34c376a o )  )  ( type_34ef9121_2263_4860_9386_85eead73a8d2_Class39 ( obj_54256b97_c4ad_4909_8847_7f64c34c376a o )  ) )):named c24))
(assert (! (exists ((o Int)) (and (and (and (and (and ( type_34ef9121_2263_4860_9386_85eead73a8d2_Class31 ( obj_54256b97_c4ad_4909_8847_7f64c34c376a o )  )  ( type_34ef9121_2263_4860_9386_85eead73a8d2_Class45 ( obj_54256b97_c4ad_4909_8847_7f64c34c376a o )  ) ) ( type_34ef9121_2263_4860_9386_85eead73a8d2_Class12 ( obj_54256b97_c4ad_4909_8847_7f64c34c376a o )  ) ) ( type_34ef9121_2263_4860_9386_85eead73a8d2_Class33 ( obj_54256b97_c4ad_4909_8847_7f64c34c376a o )  ) ) ( type_34ef9121_2263_4860_9386_85eead73a8d2_Class22 ( obj_54256b97_c4ad_4909_8847_7f64c34c376a o )  ) ) ( type_34ef9121_2263_4860_9386_85eead73a8d2_Class39 ( obj_54256b97_c4ad_4909_8847_7f64c34c376a o )  ) )):named c25))
(assert (! (exists ((o Int)) ( type_34ef9121_2263_4860_9386_85eead73a8d2_Class32 ( obj_54256b97_c4ad_4909_8847_7f64c34c376a o )  ) ):named c26))
(assert (! (exists ((o Int)) (and (and ( type_34ef9121_2263_4860_9386_85eead73a8d2_Class33 ( obj_54256b97_c4ad_4909_8847_7f64c34c376a o )  )  ( type_34ef9121_2263_4860_9386_85eead73a8d2_Class22 ( obj_54256b97_c4ad_4909_8847_7f64c34c376a o )  ) ) ( type_34ef9121_2263_4860_9386_85eead73a8d2_Class39 ( obj_54256b97_c4ad_4909_8847_7f64c34c376a o )  ) )):named c27))
(assert (! (exists ((o Int)) (and (and (and ( type_34ef9121_2263_4860_9386_85eead73a8d2_Class34 ( obj_54256b97_c4ad_4909_8847_7f64c34c376a o )  )  ( type_34ef9121_2263_4860_9386_85eead73a8d2_Class25 ( obj_54256b97_c4ad_4909_8847_7f64c34c376a o )  ) ) ( type_34ef9121_2263_4860_9386_85eead73a8d2_Class24 ( obj_54256b97_c4ad_4909_8847_7f64c34c376a o )  ) ) ( type_34ef9121_2263_4860_9386_85eead73a8d2_Class39 ( obj_54256b97_c4ad_4909_8847_7f64c34c376a o )  ) )):named c28))
(assert (! (exists ((o Int)) (and (and ( type_34ef9121_2263_4860_9386_85eead73a8d2_Class35 ( obj_54256b97_c4ad_4909_8847_7f64c34c376a o )  )  ( type_34ef9121_2263_4860_9386_85eead73a8d2_Class39 ( obj_54256b97_c4ad_4909_8847_7f64c34c376a o )  ) ) ( type_34ef9121_2263_4860_9386_85eead73a8d2_Class30 ( obj_54256b97_c4ad_4909_8847_7f64c34c376a o )  ) )):named c29))
(assert (! (exists ((o Int)) ( type_34ef9121_2263_4860_9386_85eead73a8d2_Class36 ( obj_54256b97_c4ad_4909_8847_7f64c34c376a o )  ) ):named c30))
(assert (! (exists ((o Int)) ( type_34ef9121_2263_4860_9386_85eead73a8d2_Class37 ( obj_54256b97_c4ad_4909_8847_7f64c34c376a o )  ) ):named c31))
(assert (! (exists ((o Int)) ( type_34ef9121_2263_4860_9386_85eead73a8d2_Class38 ( obj_54256b97_c4ad_4909_8847_7f64c34c376a o )  ) ):named c32))
(assert (! (exists ((o Int)) ( type_34ef9121_2263_4860_9386_85eead73a8d2_Class39 ( obj_54256b97_c4ad_4909_8847_7f64c34c376a o )  ) ):named c33))
(assert (! (exists ((o Int)) ( type_34ef9121_2263_4860_9386_85eead73a8d2_Class4 ( obj_54256b97_c4ad_4909_8847_7f64c34c376a o )  ) ):named c34))
(assert (! (exists ((o Int)) (and (and (and (and (and (and (and (and (and ( type_34ef9121_2263_4860_9386_85eead73a8d2_Class40 ( obj_54256b97_c4ad_4909_8847_7f64c34c376a o )  )  ( type_34ef9121_2263_4860_9386_85eead73a8d2_Class45 ( obj_54256b97_c4ad_4909_8847_7f64c34c376a o )  ) ) ( type_34ef9121_2263_4860_9386_85eead73a8d2_Class12 ( obj_54256b97_c4ad_4909_8847_7f64c34c376a o )  ) ) ( type_34ef9121_2263_4860_9386_85eead73a8d2_Class55 ( obj_54256b97_c4ad_4909_8847_7f64c34c376a o )  ) ) ( type_34ef9121_2263_4860_9386_85eead73a8d2_Class33 ( obj_54256b97_c4ad_4909_8847_7f64c34c376a o )  ) ) ( type_34ef9121_2263_4860_9386_85eead73a8d2_Class22 ( obj_54256b97_c4ad_4909_8847_7f64c34c376a o )  ) ) ( type_34ef9121_2263_4860_9386_85eead73a8d2_Class29 ( obj_54256b97_c4ad_4909_8847_7f64c34c376a o )  ) ) ( type_34ef9121_2263_4860_9386_85eead73a8d2_Class39 ( obj_54256b97_c4ad_4909_8847_7f64c34c376a o )  ) ) ( type_34ef9121_2263_4860_9386_85eead73a8d2_Class50 ( obj_54256b97_c4ad_4909_8847_7f64c34c376a o )  ) ) ( type_34ef9121_2263_4860_9386_85eead73a8d2_Class41 ( obj_54256b97_c4ad_4909_8847_7f64c34c376a o )  ) )):named c35))
(assert (! (exists ((o Int)) (and (and (and (and (and ( type_34ef9121_2263_4860_9386_85eead73a8d2_Class41 ( obj_54256b97_c4ad_4909_8847_7f64c34c376a o )  )  ( type_34ef9121_2263_4860_9386_85eead73a8d2_Class45 ( obj_54256b97_c4ad_4909_8847_7f64c34c376a o )  ) ) ( type_34ef9121_2263_4860_9386_85eead73a8d2_Class12 ( obj_54256b97_c4ad_4909_8847_7f64c34c376a o )  ) ) ( type_34ef9121_2263_4860_9386_85eead73a8d2_Class33 ( obj_54256b97_c4ad_4909_8847_7f64c34c376a o )  ) ) ( type_34ef9121_2263_4860_9386_85eead73a8d2_Class22 ( obj_54256b97_c4ad_4909_8847_7f64c34c376a o )  ) ) ( type_34ef9121_2263_4860_9386_85eead73a8d2_Class39 ( obj_54256b97_c4ad_4909_8847_7f64c34c376a o )  ) )):named c36))
(assert (! (exists ((o Int)) (and ( type_34ef9121_2263_4860_9386_85eead73a8d2_Class42 ( obj_54256b97_c4ad_4909_8847_7f64c34c376a o )  )  ( type_34ef9121_2263_4860_9386_85eead73a8d2_Class39 ( obj_54256b97_c4ad_4909_8847_7f64c34c376a o )  ) )):named c37))
(assert (! (exists ((o Int)) ( type_34ef9121_2263_4860_9386_85eead73a8d2_Class43 ( obj_54256b97_c4ad_4909_8847_7f64c34c376a o )  ) ):named c38))
(assert (! (exists ((o Int)) (and (and (and (and (and (and (and ( type_34ef9121_2263_4860_9386_85eead73a8d2_Class44 ( obj_54256b97_c4ad_4909_8847_7f64c34c376a o )  )  ( type_34ef9121_2263_4860_9386_85eead73a8d2_Class45 ( obj_54256b97_c4ad_4909_8847_7f64c34c376a o )  ) ) ( type_34ef9121_2263_4860_9386_85eead73a8d2_Class12 ( obj_54256b97_c4ad_4909_8847_7f64c34c376a o )  ) ) ( type_34ef9121_2263_4860_9386_85eead73a8d2_Class33 ( obj_54256b97_c4ad_4909_8847_7f64c34c376a o )  ) ) ( type_34ef9121_2263_4860_9386_85eead73a8d2_Class22 ( obj_54256b97_c4ad_4909_8847_7f64c34c376a o )  ) ) ( type_34ef9121_2263_4860_9386_85eead73a8d2_Class29 ( obj_54256b97_c4ad_4909_8847_7f64c34c376a o )  ) ) ( type_34ef9121_2263_4860_9386_85eead73a8d2_Class39 ( obj_54256b97_c4ad_4909_8847_7f64c34c376a o )  ) ) ( type_34ef9121_2263_4860_9386_85eead73a8d2_Class41 ( obj_54256b97_c4ad_4909_8847_7f64c34c376a o )  ) )):named c39))
(assert (! (exists ((o Int)) (and (and (and (and ( type_34ef9121_2263_4860_9386_85eead73a8d2_Class45 ( obj_54256b97_c4ad_4909_8847_7f64c34c376a o )  )  ( type_34ef9121_2263_4860_9386_85eead73a8d2_Class12 ( obj_54256b97_c4ad_4909_8847_7f64c34c376a o )  ) ) ( type_34ef9121_2263_4860_9386_85eead73a8d2_Class33 ( obj_54256b97_c4ad_4909_8847_7f64c34c376a o )  ) ) ( type_34ef9121_2263_4860_9386_85eead73a8d2_Class22 ( obj_54256b97_c4ad_4909_8847_7f64c34c376a o )  ) ) ( type_34ef9121_2263_4860_9386_85eead73a8d2_Class39 ( obj_54256b97_c4ad_4909_8847_7f64c34c376a o )  ) )):named c40))
(assert (! (exists ((o Int)) (and (and ( type_34ef9121_2263_4860_9386_85eead73a8d2_Class46 ( obj_54256b97_c4ad_4909_8847_7f64c34c376a o )  )  ( type_34ef9121_2263_4860_9386_85eead73a8d2_Class39 ( obj_54256b97_c4ad_4909_8847_7f64c34c376a o )  ) ) ( type_34ef9121_2263_4860_9386_85eead73a8d2_Class5 ( obj_54256b97_c4ad_4909_8847_7f64c34c376a o )  ) )):named c41))
(assert (! (exists ((o Int)) ( type_34ef9121_2263_4860_9386_85eead73a8d2_Class47 ( obj_54256b97_c4ad_4909_8847_7f64c34c376a o )  ) ):named c42))
(assert (! (exists ((o Int)) (and (and (and (and (and (and (and (and (and ( type_34ef9121_2263_4860_9386_85eead73a8d2_Class48 ( obj_54256b97_c4ad_4909_8847_7f64c34c376a o )  )  ( type_34ef9121_2263_4860_9386_85eead73a8d2_Class45 ( obj_54256b97_c4ad_4909_8847_7f64c34c376a o )  ) ) ( type_34ef9121_2263_4860_9386_85eead73a8d2_Class12 ( obj_54256b97_c4ad_4909_8847_7f64c34c376a o )  ) ) ( type_34ef9121_2263_4860_9386_85eead73a8d2_Class55 ( obj_54256b97_c4ad_4909_8847_7f64c34c376a o )  ) ) ( type_34ef9121_2263_4860_9386_85eead73a8d2_Class33 ( obj_54256b97_c4ad_4909_8847_7f64c34c376a o )  ) ) ( type_34ef9121_2263_4860_9386_85eead73a8d2_Class22 ( obj_54256b97_c4ad_4909_8847_7f64c34c376a o )  ) ) ( type_34ef9121_2263_4860_9386_85eead73a8d2_Class29 ( obj_54256b97_c4ad_4909_8847_7f64c34c376a o )  ) ) ( type_34ef9121_2263_4860_9386_85eead73a8d2_Class39 ( obj_54256b97_c4ad_4909_8847_7f64c34c376a o )  ) ) ( type_34ef9121_2263_4860_9386_85eead73a8d2_Class50 ( obj_54256b97_c4ad_4909_8847_7f64c34c376a o )  ) ) ( type_34ef9121_2263_4860_9386_85eead73a8d2_Class41 ( obj_54256b97_c4ad_4909_8847_7f64c34c376a o )  ) )):named c43))
(assert (! (exists ((o Int)) (and (and (and (and (and (and (and (and (and ( type_34ef9121_2263_4860_9386_85eead73a8d2_Class49 ( obj_54256b97_c4ad_4909_8847_7f64c34c376a o )  )  ( type_34ef9121_2263_4860_9386_85eead73a8d2_Class45 ( obj_54256b97_c4ad_4909_8847_7f64c34c376a o )  ) ) ( type_34ef9121_2263_4860_9386_85eead73a8d2_Class12 ( obj_54256b97_c4ad_4909_8847_7f64c34c376a o )  ) ) ( type_34ef9121_2263_4860_9386_85eead73a8d2_Class55 ( obj_54256b97_c4ad_4909_8847_7f64c34c376a o )  ) ) ( type_34ef9121_2263_4860_9386_85eead73a8d2_Class33 ( obj_54256b97_c4ad_4909_8847_7f64c34c376a o )  ) ) ( type_34ef9121_2263_4860_9386_85eead73a8d2_Class22 ( obj_54256b97_c4ad_4909_8847_7f64c34c376a o )  ) ) ( type_34ef9121_2263_4860_9386_85eead73a8d2_Class29 ( obj_54256b97_c4ad_4909_8847_7f64c34c376a o )  ) ) ( type_34ef9121_2263_4860_9386_85eead73a8d2_Class39 ( obj_54256b97_c4ad_4909_8847_7f64c34c376a o )  ) ) ( type_34ef9121_2263_4860_9386_85eead73a8d2_Class50 ( obj_54256b97_c4ad_4909_8847_7f64c34c376a o )  ) ) ( type_34ef9121_2263_4860_9386_85eead73a8d2_Class41 ( obj_54256b97_c4ad_4909_8847_7f64c34c376a o )  ) )):named c44))
(assert (! (exists ((o Int)) (and ( type_34ef9121_2263_4860_9386_85eead73a8d2_Class5 ( obj_54256b97_c4ad_4909_8847_7f64c34c376a o )  )  ( type_34ef9121_2263_4860_9386_85eead73a8d2_Class39 ( obj_54256b97_c4ad_4909_8847_7f64c34c376a o )  ) )):named c45))
(assert (! (exists ((o Int)) (and (and (and (and (and (and (and (and ( type_34ef9121_2263_4860_9386_85eead73a8d2_Class50 ( obj_54256b97_c4ad_4909_8847_7f64c34c376a o )  )  ( type_34ef9121_2263_4860_9386_85eead73a8d2_Class45 ( obj_54256b97_c4ad_4909_8847_7f64c34c376a o )  ) ) ( type_34ef9121_2263_4860_9386_85eead73a8d2_Class12 ( obj_54256b97_c4ad_4909_8847_7f64c34c376a o )  ) ) ( type_34ef9121_2263_4860_9386_85eead73a8d2_Class55 ( obj_54256b97_c4ad_4909_8847_7f64c34c376a o )  ) ) ( type_34ef9121_2263_4860_9386_85eead73a8d2_Class33 ( obj_54256b97_c4ad_4909_8847_7f64c34c376a o )  ) ) ( type_34ef9121_2263_4860_9386_85eead73a8d2_Class22 ( obj_54256b97_c4ad_4909_8847_7f64c34c376a o )  ) ) ( type_34ef9121_2263_4860_9386_85eead73a8d2_Class29 ( obj_54256b97_c4ad_4909_8847_7f64c34c376a o )  ) ) ( type_34ef9121_2263_4860_9386_85eead73a8d2_Class39 ( obj_54256b97_c4ad_4909_8847_7f64c34c376a o )  ) ) ( type_34ef9121_2263_4860_9386_85eead73a8d2_Class41 ( obj_54256b97_c4ad_4909_8847_7f64c34c376a o )  ) )):named c46))
(assert (! (exists ((o Int)) (and (and (and (and (and (and ( type_34ef9121_2263_4860_9386_85eead73a8d2_Class51 ( obj_54256b97_c4ad_4909_8847_7f64c34c376a o )  )  ( type_34ef9121_2263_4860_9386_85eead73a8d2_Class45 ( obj_54256b97_c4ad_4909_8847_7f64c34c376a o )  ) ) ( type_34ef9121_2263_4860_9386_85eead73a8d2_Class12 ( obj_54256b97_c4ad_4909_8847_7f64c34c376a o )  ) ) ( type_34ef9121_2263_4860_9386_85eead73a8d2_Class33 ( obj_54256b97_c4ad_4909_8847_7f64c34c376a o )  ) ) ( type_34ef9121_2263_4860_9386_85eead73a8d2_Class22 ( obj_54256b97_c4ad_4909_8847_7f64c34c376a o )  ) ) ( type_34ef9121_2263_4860_9386_85eead73a8d2_Class16 ( obj_54256b97_c4ad_4909_8847_7f64c34c376a o )  ) ) ( type_34ef9121_2263_4860_9386_85eead73a8d2_Class39 ( obj_54256b97_c4ad_4909_8847_7f64c34c376a o )  ) )):named c47))
(assert (! (exists ((o Int)) (and (and (and (and (and ( type_34ef9121_2263_4860_9386_85eead73a8d2_Class52 ( obj_54256b97_c4ad_4909_8847_7f64c34c376a o )  )  ( type_34ef9121_2263_4860_9386_85eead73a8d2_Class45 ( obj_54256b97_c4ad_4909_8847_7f64c34c376a o )  ) ) ( type_34ef9121_2263_4860_9386_85eead73a8d2_Class12 ( obj_54256b97_c4ad_4909_8847_7f64c34c376a o )  ) ) ( type_34ef9121_2263_4860_9386_85eead73a8d2_Class33 ( obj_54256b97_c4ad_4909_8847_7f64c34c376a o )  ) ) ( type_34ef9121_2263_4860_9386_85eead73a8d2_Class22 ( obj_54256b97_c4ad_4909_8847_7f64c34c376a o )  ) ) ( type_34ef9121_2263_4860_9386_85eead73a8d2_Class39 ( obj_54256b97_c4ad_4909_8847_7f64c34c376a o )  ) )):named c48))
(assert (! (exists ((o Int)) ( type_34ef9121_2263_4860_9386_85eead73a8d2_Class53 ( obj_54256b97_c4ad_4909_8847_7f64c34c376a o )  ) ):named c49))
(assert (! (exists ((o Int)) ( type_34ef9121_2263_4860_9386_85eead73a8d2_Class54 ( obj_54256b97_c4ad_4909_8847_7f64c34c376a o )  ) ):named c50))
(assert (! (exists ((o Int)) (and (and (and (and (and (and (and ( type_34ef9121_2263_4860_9386_85eead73a8d2_Class55 ( obj_54256b97_c4ad_4909_8847_7f64c34c376a o )  )  ( type_34ef9121_2263_4860_9386_85eead73a8d2_Class45 ( obj_54256b97_c4ad_4909_8847_7f64c34c376a o )  ) ) ( type_34ef9121_2263_4860_9386_85eead73a8d2_Class12 ( obj_54256b97_c4ad_4909_8847_7f64c34c376a o )  ) ) ( type_34ef9121_2263_4860_9386_85eead73a8d2_Class33 ( obj_54256b97_c4ad_4909_8847_7f64c34c376a o )  ) ) ( type_34ef9121_2263_4860_9386_85eead73a8d2_Class22 ( obj_54256b97_c4ad_4909_8847_7f64c34c376a o )  ) ) ( type_34ef9121_2263_4860_9386_85eead73a8d2_Class29 ( obj_54256b97_c4ad_4909_8847_7f64c34c376a o )  ) ) ( type_34ef9121_2263_4860_9386_85eead73a8d2_Class39 ( obj_54256b97_c4ad_4909_8847_7f64c34c376a o )  ) ) ( type_34ef9121_2263_4860_9386_85eead73a8d2_Class41 ( obj_54256b97_c4ad_4909_8847_7f64c34c376a o )  ) )):named c51))
(assert (! (exists ((o Int)) ( type_34ef9121_2263_4860_9386_85eead73a8d2_Class6 ( obj_54256b97_c4ad_4909_8847_7f64c34c376a o )  ) ):named c52))
(assert (! (exists ((o Int)) (and (and (and (and (and (and (and (and (and ( type_34ef9121_2263_4860_9386_85eead73a8d2_Class7 ( obj_54256b97_c4ad_4909_8847_7f64c34c376a o )  )  ( type_34ef9121_2263_4860_9386_85eead73a8d2_Class45 ( obj_54256b97_c4ad_4909_8847_7f64c34c376a o )  ) ) ( type_34ef9121_2263_4860_9386_85eead73a8d2_Class12 ( obj_54256b97_c4ad_4909_8847_7f64c34c376a o )  ) ) ( type_34ef9121_2263_4860_9386_85eead73a8d2_Class55 ( obj_54256b97_c4ad_4909_8847_7f64c34c376a o )  ) ) ( type_34ef9121_2263_4860_9386_85eead73a8d2_Class33 ( obj_54256b97_c4ad_4909_8847_7f64c34c376a o )  ) ) ( type_34ef9121_2263_4860_9386_85eead73a8d2_Class22 ( obj_54256b97_c4ad_4909_8847_7f64c34c376a o )  ) ) ( type_34ef9121_2263_4860_9386_85eead73a8d2_Class29 ( obj_54256b97_c4ad_4909_8847_7f64c34c376a o )  ) ) ( type_34ef9121_2263_4860_9386_85eead73a8d2_Class39 ( obj_54256b97_c4ad_4909_8847_7f64c34c376a o )  ) ) ( type_34ef9121_2263_4860_9386_85eead73a8d2_Class50 ( obj_54256b97_c4ad_4909_8847_7f64c34c376a o )  ) ) ( type_34ef9121_2263_4860_9386_85eead73a8d2_Class41 ( obj_54256b97_c4ad_4909_8847_7f64c34c376a o )  ) )):named c53))
(assert (! (exists ((o Int)) (and ( type_34ef9121_2263_4860_9386_85eead73a8d2_Class8 ( obj_54256b97_c4ad_4909_8847_7f64c34c376a o )  )  ( type_34ef9121_2263_4860_9386_85eead73a8d2_Class39 ( obj_54256b97_c4ad_4909_8847_7f64c34c376a o )  ) )):named c54))
(assert (! (exists ((o Int)) ( type_34ef9121_2263_4860_9386_85eead73a8d2_Class9 ( obj_54256b97_c4ad_4909_8847_7f64c34c376a o )  ) ):named c55))

 ;end of formula 